<number of tasks>
20

<cycle time>
1000

<order strength>
0,511


<task times>
1 472
2 381
3 616
4 775
5 501
6 570
7 628
8 496
9 551
10 512
11 364
12 555
13 445
14 535
15 420
16 646
17 407
18 423
19 329
20 582

<precedence relations>
1,7
1,14
2,6
2,7
3,6
4,6
5,20
6,8
7,9
7,10
7,11
7,13
8,12
8,13
8,14
8,15
11,15
11,19
12,16
12,17
13,16
15,17
16,19
17,18
17,20

<end>
